10
00 19 56 43 22 81 62 10 72 32
19 00 71 27 72 99 21 32 11 23
56 71 00 33 26 76 13 96 86 23
43 27 33 00 78 34 12 56 84 31
22 72 26 78 00 87 32 43 55 56
81 99 76 34 87 00 28 67 24 31
62 21 13 12 32 28 00 16 43 29
10 32 96 56 43 67 16 00 23 34
72 11 86 84 55 24 43 23 00 55
32 23 23 32 56 31 29 34 55 00